Host
1.0
5.000000 0.000000 0.000000
0.000000 5.000000 0.000000
0.000000 0.000000 5.000000
Fe O
1 2
Direct
0.000000 0.000000 0.000000
0.500000 0.500000 0.000000
0.500000 0.000000 0.500000
