Si
1.0
5.500000 0.000000 0.000000
0.000000 5.500000 0.000000
0.000000 0.000000 5.500000
Si
2
Direct
0.000000 0.000000 0.000000
0.260000 0.260000 0.260000
