Lithiated
1.0
5.100000 0.000000 0.000000
0.000000 5.100000 0.000000
0.000000 0.000000 5.100000
Li Fe O
1 1 2
Direct
0.250000 0.250000 0.250000
0.000000 0.000000 0.000000
0.500000 0.500000 0.000000
0.500000 0.000000 0.500000
